; TODO try replacing this with int
(declare-datatype nat ((zero) (s (s_0 nat))))
(declare-datatype list (par (a) ((Nil) (Cons (Cons_0 a) (Cons_1 (list a))))))
(declare-fun plus (nat nat) nat)
(assert (forall ((x nat)) (= (plus zero x) x)))
(assert (forall ((x nat) (y nat)) (= (plus (s x) y) (s (plus x y)))))
(declare-fun mult (nat nat) nat)
(assert (forall ((x nat)) (= (mult zero x) zero)))
(assert (forall ((x nat) (y nat)) (= (mult (s x) y) (plus (mult x y) y))))
(define-sort lists (a) (list (list a)))
(declare-fun in_set (par (a) (a (list a)) Bool))
(assert (par (a) (forall ((x a)) (not (in_set a x (Nil a))))))
(assert (par (a) (forall ((x a) (y a) (ys (list a))) (= (in_set a x (Cons a y ys)) (or (= x y) (in_set a x ys))))))
(declare-fun less (par (a) (a a) Bool))
(declare-fun leq (par (a) (a a) Bool))
(assert (par (a) (forall ((x a) (y a)) (= (leq a x y) (or (= x y) (less a x y))))))
(declare-fun len (par (a) ((list a)) nat))
(assert (par (a) (= (len a (Nil a)) zero)))
(assert (par (a) (forall ((x a) (xs (list a))) (= (len a (Cons a x xs)) (s (len a xs))))))
(declare-fun merge (par (a) ((list a) (list a)) (list a)))
(assert (par (a) (forall ((ys (list a))) (= (merge a (Nil a) ys) ys))))
(assert (par (a) (forall ((xs (list a))) (= (merge a xs (Nil a)) xs))))
(assert (par (a) (forall ((x a) (xs (list a)) (y a) (ys (list a))) (= (merge a (Cons a x xs) (Cons a y ys))
  (ite (leq a x y) (Cons a x (merge a xs (Cons a y ys))) (Cons a y (merge a (Cons a x xs) ys)))))))
(declare-fun merge_adj (par (a) ((lists a)) (lists a)))
(assert (par (a) (= (merge_adj a (Nil (list a))) (Nil (list a)))))
(assert (par (a) (forall ((xs (list a))) (= (merge_adj a (Cons (list a) xs (Nil (list a)))) (Cons (list a) xs (Nil (list a)))))))
(assert (par (a) (forall ((xs (list a)) (ys (list a)) (zss (lists a))) (= (merge_adj a (Cons (list a) xs (Cons (list a) ys zss)))
  (Cons (list a) (merge a xs ys) (merge_adj a zss))))))
(declare-fun even (nat) Bool)
(assert (even zero))
(assert (forall ((x nat)) (= (even (s x)) (not (even x)))))
;(assert (forall ((n nat)) (= (even n) (= (div n 2) 0))))

; even(|xss|) & (!xs in set(xss).|xs| = m) -> (!xs in set(merge_adj(xss)). |xs| = 2 * m)
(assert-not (par (a) (forall ((xss (lists a)) (m nat)) (=> (and (even (len (list a) xss)) (forall ((xs (list a))) (=> (in_set (list a) xs xss) (= (len a xs) m)))) (forall ((xs (list a))) (=> (in_set (list a) xs (merge_adj a xss)) (= (len a xs) (mult (s (s zero)) m))))))))
